c LRAT-TRIM Version 0.2.1-dev trims LRAT proofs
c Copyright (c) 2023-2025 A. Biere, F. Pollitt, Univ. Freiburg
c reading CNF and LRAT files
c backward checking trimmed clauses after trimming proof
c reading CNF from 'D:\Projects\carrollian\data\evidence\ss_sat\benchmarks\scaled\xor_parity_6_unsat.cnf'
c found 'p cnf 6 64' header
c parsed CNF with 64 added clauses
c parsing original CNF took 0.00 seconds and needed 0 MB memory
c reading proof from 'D:\Projects\carrollian\data\evidence\ss_sat\proofs\scaled_cadical_lrat\xor_parity_6_unsat.cadical.lrat'
c parsed original proof with 37 added and 0 deleted clauses
c parsing original proof took 0.00 seconds and needed 0 MB memory
c trimmed 64 original clauses in CNF to 64 clauses 100%
c trimmed 37 added clauses in original proof to 37 clauses 100%
c trimming proof took 0.00 seconds
c backward checking proof took 0.00 seconds
s VERIFIED
c checked 37 clauses 0 per second
c resolved 152 clauses 4.11 per checked clause
c assigned 212 literals 5.73 per checked clause
c maximum memory usage of 0 MB
c total time of 0.00 seconds
